data;
param n:=50;
param w:=1 227 2 -24 3 54 4 -258 5 -246 6 169 7 -197 8 -122 9 151 10 -208 11 185 12 234 13 -75 14 180 15 -162 16 -70 17 -106 18 -263 19 52 20 60 21 145 22 -18 23 -204 24 103 25 -78 26 161 27 -63 28 -36 29 142 30 231 31 223 32 -8 33 27 34 35 35 -95 36 54 37 204 38 187 39 -216 40 -175 41 212 42 -159 43 -104 44 39 45 122 46 -82 47 -96 48 130 49 -212 50 -50;
